\ENCODING=ISO-8859-1
\Problem name: 

Maximize
 obj: - a0 + a1 + a2 + a3 + a4 + a5 + a6 + a7 + a13 + a15 + a17 + a19 + a20
      + a21 + a22 + a23 + a24 + a25 + a32 + a33 + a34 + a35 + a36 + a37 + a39
      + a40 + a42 + a44 + a45 + a57 + a59 + a61 + a63 + a65 + a69 + a73 + a77
      + a92 + a95 + a96 + a99 + a100 + a103 + a117 + a122 + a126
Subject To
 c1:   - a0 - f0 + u1 - u2 + u3 - u4 + u5 - u6 + u7 - u8 + u9 - u10 + u11 - u12
       + u13 - u14 + u15 - u16 + u17 - u18 + u19 - u20 + u21 - u22 + u23 - u24
       + u25 - u26 + u27 - u28 + u29 - u30 + u31 - u32 + u33 - u34 + u35 - u36
       + u37 - u38 + u39 - u40 + u41 - u42 + u43 - u44 + u45 - u46 + u47 - u48
       + u49 - u50 + u51 - u52 + u53 - u54 + u55 - u56 + u57 - u58 + u59 - u60
       + u61 - u62 + u63 - u64 + u65 - u66 + u67 - u68 + u69 - u70 + u71 - u72
       + u73 - u74 + u75 - u76 + u77 - u78 + u79 - u80 + u81 - u82 + u83 - u84
       + u85 - u86 + u87 - u88 + u89 - u90 + u91 - u92 + u93 - u94 + u95 - u96
       + u97 - u98 + u99 - u100 + u101 - u102 + u103 - u104 + u105 - u106
       + u107 - u108 + u109 - u110 + u111 - u112 + u113 - u114 + u115 - u116
       + u117 - u118 + u119 - u120 + 2 u121 - 2 u122 + 2 u123 - 2 u124 + 2 u125
       - 2 u126 + 2 u127 - 2 u128 + 2 u129 - 2 u130 + 2 u131 - 2 u132 + 2 u133
       - 2 u134 + 2 u135 - 2 u136 + 2 u137 - 2 u138 + 2 u139 - 2 u140 + 2 u141
       - 2 u142 + 2 u143 - 2 u144 + 2 u145 - 2 u146 + 2 u147 - 2 u148 + 2 u149
       - 2 u150 + 2 u151 - 2 u152 + 2 u153 - 2 u154 + 2 u155 - 2 u156 + 2 u157
       - 2 u158 + 2 u159 - 2 u160 + 2 u161 - 2 u162 + 2 u163 - 2 u164 + 2 u165
       - 2 u166 + 2 u167 - 2 u168 + 2 u169 - 2 u170 + 2 u171 - 2 u172 + 2 u173
       - 2 u174 + 2 u175 - 2 u176 - 16 u177 - 13 u178 - 9 u179 - 9 u180
       - 12 u181 - 152 u182  = 0
 c2:   - a1 - f1 + u121 - u122 + u123 - u124  = 0
 c3:   - a2 - f2 + u1 - u2 + u123 - u124 + u125 - u126  = 0
 c4:   - a3 - f3 + u3 - u4 + u125 - u126 + u127 - u128  = 0
 c5:   - a4 - f4 + u5 - u6 + u127 - u128 + u129 - u130  = 0
 c6:   - a5 - f5 + u7 - u8 + u129 - u130 + u131 - u132  = 0
 c7:   - a6 - f6 + u9 - u10 + u131 - u132 + u133 - u134  = 0
 c8:   - a7 - f7 + u121 - u122 + u135 - u136  = 0
 c9:   - a13 - f13 + u21 - u22 + u133 - u134 + u147 - u148  = 0
 c10:  - a15 - f15 + u25 - u26 + u137 - u138 + u139 - u140  = 0
 c11:  - a17 - f17 + u29 - u30 + u141 - u142 + u143 - u144  = 0
 c12:  - a19 - f19 + u33 - u34 + u145 - u146 + u147 - u148  = 0
 c13:  - a20 - f20 + u35 - u36 + u135 - u136 + u149 - u150  = 0
 c14:  - a21 - f21 + u37 - u38 + u137 - u138 + u151 - u152  = 0
 c15:  - a22 - f22 + u39 - u40 + u139 - u140 + u153 - u154  = 0
 c16:  - a23 - f23 + u41 - u42 + u141 - u142 + u155 - u156  = 0
 c17:  - a24 - f24 + u43 - u44 + u143 - u144 + u157 - u158  = 0
 c18:  - a25 - f25 + u45 - u46 + u145 - u146 + u159 - u160  = 0
 c19:  - a32 - f32 + u59 - u60 + u159 - u160 + u161 - u162  = 0
 c20:  - a33 - f33 + u61 - u62 + u149 - u150 + u163 - u164  = 0
 c21:  - a34 - f34 + u63 - u64 + u151 - u152 + u165 - u166  = 0
 c22:  - a35 - f35 + u65 - u66 + u153 - u154 + u167 - u168  = 0
 c23:  - a36 - f36 + u67 - u68 + u155 - u156 + u169 - u170  = 0
 c24:  - a37 - f37 + u69 - u70 + u157 - u158 + u171 - u172  = 0
 c25:  - a39 - f39 + u73 - u74 + u161 - u162 + u175 - u176  = 0
 c26:  - a40 - f40 + u75 - u76 + u163 - u164 + u165 - u166  = 0
 c27:  - a42 - f42 + u79 - u80 + u167 - u168 + u169 - u170  = 0
 c28:  - a44 - f44 + u83 - u84 + u171 - u172 + u173 - u174  = 0
 c29:  - a45 - f45 + u85 - u86 + u173 - u174 + u175 - u176  = 0
 c30:  - a57 - f57 + u11 - u12 + u87 - u88 - u177 - u178 - u180 - 135 u182  = 0
 c31:  - a59 - f59 + u13 - u14 + u89 - u90 - u178 - 2 u179 - u180 - 2 u182  = 0
 c32:  - a61 - f61 + u15 - u16 + u91 - u92 - u177 - u180 - u182  = 0
 c33:  - a63 - f63 + u17 - u18 + u93 - u94 - u177 - u178 - u179 - u180 - u181
       - u182  = 0
 c34:  - a65 - f65 + u19 - u20 + u95 - u96 - u177 - u181 - u182  = 0
 c35:  - a69 - f69 + u23 - u24 + u97 - u98 - u177 - 6 u178 - u180 - u181 - u182
        = 0
 c36:  - a73 - f73 + u27 - u28 + u101 - u102 - u181 - u182  = 0
 c37:  - a77 - f77 + u31 - u32 + u105 - u106 - u179 - u180 - u181 - u182  = 0
 c38:  - a92 - f92 + u47 - u48 + u107 - u108 - u177 - u182  = 0
 c39:  - a95 - f95 + u49 - u50 + u109 - u110 - u177 - u179 - u182  = 0
 c40:  - a96 - f96 + u51 - u52 + u99 - u100 - 3 u177 - u178 - u180 - u181
       - u182  = 0
 c41:  - a99 - f99 + u53 - u54 + u113 - u114 - u177 - u178 - u180 - u181 - u182
        = 0
 c42:  - a100 - f100 + u55 - u56 + u103 - u104 - u177 - u179 - u180 - u181
       - u182  = 0
 c43:  - a103 - f103 + u57 - u58 + u117 - u118 - 2 u177 - u178 - u179 - u181
       - u182  = 0
 c44:  - a117 - f117 + u71 - u72 + u119 - u120 - u177 - u179 - u181 - u182  = 0
 c45:  - a122 - f122 + u77 - u78 + u111 - u112 - u179 - u181 - u182  = 0
 c46:  - a126 - f126 + u81 - u82 + u115 - u116 - 2 u177 - u178 - 2 u181 - u182
        = 0
 c47:  u121 - u122 + u123 - u124  = 0
 c48:  u1 - u2 + u123 - u124 + u125 - u126  = 0
 c49:  u3 - u4 + u125 - u126 + u127 - u128  = 0
 c50:  u5 - u6 + u127 - u128 + u129 - u130  = 0
 c51:  u7 - u8 + u129 - u130 + u131 - u132  = 0
 c52:  u9 - u10 + u131 - u132 + u133 - u134  = 0
 c53:  u121 - u122 + u135 - u136  = 0
 c54:  u11 - u12 + u123 - u124 + u137 - u138  = 0
 c55:  u13 - u14 + u125 - u126 + u139 - u140  = 0
 c56:  u15 - u16 + u127 - u128 + u141 - u142  = 0
 c57:  u17 - u18 + u129 - u130 + u143 - u144  = 0
 c58:  u19 - u20 + u131 - u132 + u145 - u146  = 0
 c59:  u21 - u22 + u133 - u134 + u147 - u148  = 0
 c60:  u23 - u24 + u135 - u136 + u137 - u138  = 0
 c61:  u25 - u26 + u137 - u138 + u139 - u140  = 0
 c62:  u27 - u28 + u139 - u140 + u141 - u142  = 0
 c63:  u29 - u30 + u141 - u142 + u143 - u144  = 0
 c64:  u31 - u32 + u143 - u144 + u145 - u146  = 0
 c65:  u33 - u34 + u145 - u146 + u147 - u148  = 0
 c66:  u35 - u36 + u135 - u136 + u149 - u150  = 0
 c67:  u37 - u38 + u137 - u138 + u151 - u152  = 0
 c68:  u39 - u40 + u139 - u140 + u153 - u154  = 0
 c69:  u41 - u42 + u141 - u142 + u155 - u156  = 0
 c70:  u43 - u44 + u143 - u144 + u157 - u158  = 0
 c71:  u45 - u46 + u145 - u146 + u159 - u160  = 0
 c72:  u47 - u48 + u147 - u148 + u161 - u162  = 0
 c73:  u49 - u50 + u149 - u150 + u151 - u152  = 0
 c74:  u51 - u52 + u151 - u152 + u153 - u154  = 0
 c75:  u53 - u54 + u153 - u154 + u155 - u156  = 0
 c76:  u55 - u56 + u155 - u156 + u157 - u158  = 0
 c77:  u57 - u58 + u157 - u158 + u159 - u160  = 0
 c78:  u59 - u60 + u159 - u160 + u161 - u162  = 0
 c79:  u61 - u62 + u149 - u150 + u163 - u164  = 0
 c80:  u63 - u64 + u151 - u152 + u165 - u166  = 0
 c81:  u65 - u66 + u153 - u154 + u167 - u168  = 0
 c82:  u67 - u68 + u155 - u156 + u169 - u170  = 0
 c83:  u69 - u70 + u157 - u158 + u171 - u172  = 0
 c84:  u71 - u72 + u159 - u160 + u173 - u174  = 0
 c85:  u73 - u74 + u161 - u162 + u175 - u176  = 0
 c86:  u75 - u76 + u163 - u164 + u165 - u166  = 0
 c87:  u77 - u78 + u165 - u166 + u167 - u168  = 0
 c88:  u79 - u80 + u167 - u168 + u169 - u170  = 0
 c89:  u81 - u82 + u169 - u170 + u171 - u172  = 0
 c90:  u83 - u84 + u171 - u172 + u173 - u174  = 0
 c91:  u85 - u86 + u173 - u174 + u175 - u176  = 0
 c92:  u1 - u2 + u87 - u88 - u177 - u178 - u180 - 135 u182 <= 0
 c93:  u1 - u2 - 2 u178 <= 0
 c94:  u3 - u4 + u89 - u90 - u177 - u178 - u179 - u180 - 2 u182 <= 0
 c95:  u3 - u4 - u178 <= 0
 c96:  u5 - u6 + u91 - u92 - u177 - 2 u180 - u182 <= 0
 c97:  u5 - u6 - u178 - u180 - u181 <= 0
 c98:  u7 - u8 + u93 - u94 - u178 - u180 - u181 - u182 <= 0
 c99:  u7 - u8 - 2 u178 - 2 u179 - u181 <= 0
 c100: u9 - u10 + u95 - u96 - u177 - u180 - u181 - u182 <= 0
 c101: u9 - u10 - u178 - 2 u179 - u182 <= 0
 c102: u11 - u12 - 2 u178 <= 0
 c103: u11 - u12 + u87 - u88 - u177 - u178 - u180 - 135 u182 <= 0
 c104: u13 - u14 + u87 - u88 - u179 - u180 - 135 u182 <= 0
 c105: u13 - u14 + u89 - u90 - u178 - 2 u179 - u180 - 2 u182 <= 0
 c106: u15 - u16 + u89 - u90 - u177 - u178 - u179 - u180 - u181 - 2 u182 <= 0
 c107: u15 - u16 + u91 - u92 - u177 - u180 - u182 <= 0
 c108: u17 - u18 + u91 - u92 - u177 - u178 - 2 u179 - 2 u180 - u182 <= 0
 c109: u17 - u18 + u93 - u94 - u177 - u178 - u179 - u180 - u181 - u182 <= 0
 c110: u19 - u20 + u93 - u94 - u178 - u179 - u181 - 2 u182 <= 0
 c111: u19 - u20 + u95 - u96 - u177 - u181 - u182 <= 0
 c112: u21 - u22 + u95 - u96 - u177 - 2 u180 - u181 - u182 <= 0
 c113: u21 - u22 - u178 - 2 u179 - 2 u180 <= 0
 c114: u23 - u24 - 2 u178 <= 0
 c115: u23 - u24 + u97 - u98 - u177 - 6 u178 - u180 - u181 - u182 <= 0
 c116: u25 - u26 + u87 - u88 - u179 - u180 - 135 u182 <= 0
 c117: u25 - u26 + u99 - u100 - u181 - u182 <= 0
 c118: u27 - u28 + u89 - u90 - u178 - 2 u179 - u180 - u181 - 2 u182 <= 0
 c119: u27 - u28 + u101 - u102 - u181 - u182 <= 0
 c120: u29 - u30 + u91 - u92 - u177 - u178 - 2 u179 - u180 - u182 <= 0
 c121: u29 - u30 + u103 - u104 - u177 - u178 - u179 - u181 <= 0
 c122: u31 - u32 + u93 - u94 - u177 - u179 - u180 - u181 - 2 u182 <= 0
 c123: u31 - u32 + u105 - u106 - u179 - u180 - u181 - u182 <= 0
 c124: u33 - u34 + u95 - u96 - u177 - 2 u180 - u181 - u182 <= 0
 c125: u33 - u34 + u107 - u108 - u177 - 2 u179 - u182 <= 0
 c126: u35 - u36 + u97 - u98 - u177 - 5 u178 - u180 - u181 - u182 <= 0
 c127: u35 - u36 <= 0
 c128: u37 - u38 + u97 - u98 - 2 u177 - 6 u178 - u179 - u180 - u181 - u182 <= 0
 c129: u37 - u38 + u99 - u100 - 2 u177 - u178 - u181 - u182 <= 0
 c130: u39 - u40 + u99 - u100 - u177 - u180 - u181 - u182 <= 0
 c131: u39 - u40 + u101 - u102 - u177 - u180 - u181 - u182 <= 0
 c132: u41 - u42 + u101 - u102 - u177 - u178 - u179 - u180 - 2 u181 - 2 u182
       <= 0
 c133: u41 - u42 + u103 - u104 - u177 - u178 - u179 - u180 - 2 u181 - u182 <= 0
 c134: u43 - u44 + u103 - u104 - 2 u177 - u178 - 2 u179 - u180 - u181 - u182
       <= 0
 c135: u43 - u44 + u105 - u106 - u177 - u179 - u180 - u181 - 2 u182 <= 0
 c136: u45 - u46 + u105 - u106 - u178 - u180 - u181 - u182 <= 0
 c137: u45 - u46 + u107 - u108 - u177 - 2 u179 - u182 <= 0
 c138: u47 - u48 + u107 - u108 - u177 - u182 <= 0
 c139: u47 - u48 - u178 - u180 - u182 <= 0
 c140: u49 - u50 + u97 - u98 - 2 u177 - 5 u178 - u179 - u180 - u181 - u182 <= 0
 c141: u49 - u50 + u109 - u110 - u177 - u179 - u182 <= 0
 c142: u51 - u52 + u99 - u100 - 3 u177 - u178 - u180 - u181 - u182 <= 0
 c143: u51 - u52 + u111 - u112 - 2 u177 - 2 u178 - u179 - u180 - 2 u181 <= 0
 c144: u53 - u54 + u101 - u102 - 2 u177 - u178 - u179 - 2 u180 - 2 u181
       - 2 u182 <= 0
 c145: u53 - u54 + u113 - u114 - u177 - u178 - u180 - u181 - u182 <= 0
 c146: u55 - u56 + u103 - u104 - u177 - u179 - u180 - u181 - u182 <= 0
 c147: u55 - u56 + u115 - u116 - 2 u177 - u178 - u182 <= 0
 c148: u57 - u58 + u105 - u106 - u177 - u178 - u179 - u180 - u181 - u182 <= 0
 c149: u57 - u58 + u117 - u118 - 2 u177 - u178 - u179 - u181 - u182 <= 0
 c150: u59 - u60 + u107 - u108 - u177 - u182 <= 0
 c151: u59 - u60 + u119 - u120 - u177 - u181 - u182 <= 0
 c152: u61 - u62 + u109 - u110 - u179 - u182 <= 0
 c153: u61 - u62 - u179 <= 0
 c154: u63 - u64 + u109 - u110 - u177 - u178 - u182 <= 0
 c155: u63 - u64 + u111 - u112 - u177 - u178 - u181 <= 0
 c156: u65 - u66 + u111 - u112 - u177 - u178 - 2 u179 - u180 - 2 u181 - u182
       <= 0
 c157: u65 - u66 + u113 - u114 - 2 u177 - u178 - u179 - u180 - u181 - 2 u182
       <= 0
 c158: u67 - u68 + u113 - u114 - u177 - u178 - u179 - u180 - 2 u181 - 2 u182
       <= 0
 c159: u67 - u68 + u115 - u116 - 2 u177 - u178 - u181 - u182 <= 0
 c160: u69 - u70 + u115 - u116 - 2 u177 - u181 - 5.55111512312578e-17 u182 <= 0
 c161: u69 - u70 + u117 - u118 - u177 - u179 - u181 - u182 <= 0
 c162: u71 - u72 + u117 - u118 - 2 u177 - u178 - u182 <= 0
 c163: u71 - u72 + u119 - u120 - u177 - u179 - u181 - u182 <= 0
 c164: u73 - u74 + u119 - u120 - u181 - u182 <= 0
 c165: u73 - u74 - u178 - u180 <= 0
 c166: u75 - u76 + u109 - u110 - u178 - u182 <= 0
 c167: u75 - u76 - u178 <= 0
 c168: u77 - u78 + u111 - u112 - u179 - u181 - u182 <= 0
 c169: u77 - u78 - u179 - u182 <= 0
 c170: u79 - u80 + u113 - u114 - u177 - u179 - u181 - 2 u182 <= 0
 c171: u79 - u80 - u177 - u178 - 3 u179 - u180 - 2 u181 - 2 u182 <= 0
 c172: u81 - u82 + u115 - u116 - 2 u177 - u178 - 2 u181 - u182 <= 0
 c173: u81 - u82 - u178 - 2 u179 - u180 - 2 u181 - u182 <= 0
 c174: u83 - u84 + u117 - u118 - u177 - u179 - u181 - u182 <= 0
 c175: u83 - u84 - 2 u179 - u180 - u181 - u182 <= 0
 c176: u85 - u86 + u119 - u120 - u177 - u179 - u181 - u182 <= 0
 c177: u85 - u86 - u177 - u178 - u179 - u180 <= 0
 c178: u177 + u178 + u179 + u180 + u181 + u182  = 0
Bounds
      a0 Free
      a1 Free
      a2 Free
      a3 Free
      a4 Free
      a5 Free
      a6 Free
      a7 Free
      a13 Free
      a15 Free
      a17 Free
      a19 Free
      a20 Free
      a21 Free
      a22 Free
      a23 Free
      a24 Free
      a25 Free
      a32 Free
      a33 Free
      a34 Free
      a35 Free
      a36 Free
      a37 Free
      a39 Free
      a40 Free
      a42 Free
      a44 Free
      a45 Free
      a57 Free
      a59 Free
      a61 Free
      a63 Free
      a65 Free
      a69 Free
      a73 Free
      a77 Free
      a92 Free
      a95 Free
      a96 Free
      a99 Free
      a100 Free
      a103 Free
      a117 Free
      a122 Free
      a126 Free
 0 <= f0 <= 0.99
 0 <= f1 <= 0.99
 0 <= f2 <= 0.99
 0 <= f3 <= 0.99
 0 <= f4 <= 0.99
 0 <= f5 <= 0.99
 0 <= f6 <= 0.99
 0 <= f7 <= 0.99
 0 <= f13 <= 0.99
 0 <= f15 <= 0.99
 0 <= f17 <= 0.99
 0 <= f19 <= 0.99
 0 <= f20 <= 0.99
 0 <= f21 <= 0.99
 0 <= f22 <= 0.99
 0 <= f23 <= 0.99
 0 <= f24 <= 0.99
 0 <= f25 <= 0.99
 0 <= f32 <= 0.99
 0 <= f33 <= 0.99
 0 <= f34 <= 0.99
 0 <= f35 <= 0.99
 0 <= f36 <= 0.99
 0 <= f37 <= 0.99
 0 <= f39 <= 0.99
 0 <= f40 <= 0.99
 0 <= f42 <= 0.99
 0 <= f44 <= 0.99
 0 <= f45 <= 0.99
 0 <= f57 <= 0.99
 0 <= f59 <= 0.99
 0 <= f61 <= 0.99
 0 <= f63 <= 0.99
 0 <= f65 <= 0.99
 0 <= f69 <= 0.99
 0 <= f73 <= 0.99
 0 <= f77 <= 0.99
 0 <= f92 <= 0.99
 0 <= f95 <= 0.99
 0 <= f96 <= 0.99
 0 <= f99 <= 0.99
 0 <= f100 <= 0.99
 0 <= f103 <= 0.99
 0 <= f117 <= 0.99
 0 <= f122 <= 0.99
 0 <= f126 <= 0.99
Generals
 a0  a1  a2  a3  a4  a5  a6  a7  a13  a15  a17  a19  a20  a21  a22  a23  a24 
 a25  a32  a33  a34  a35  a36  a37  a39  a40  a42  a44  a45  a57  a59  a61 
 a63  a65  a69  a73  a77  a92  a95  a96  a99  a100  a103  a117  a122  a126 
End
